clingo version 5.6.2
Reading from ...togen_asp_scripts/ijp_expt_cases-86.dl
Solving...
Answer: 1
res(3) witness(2,1,3) witness(2,4,3) witness(7,1,3) witness(7,4,3) witness(7,4,8) witness(8,4,4) witness(8,7,4) witness(8,2,6) witness(8,4,8) number_of_witnesses(9)
Optimization: 9
Answer: 2
res(3) witness(2,4,8) witness(7,1,3) witness(7,4,3) witness(8,4,4) witness(8,7,4) witness(8,2,6) witness(8,4,8) number_of_witnesses(7)
Optimization: 7
